p edge 40 240
e 1 2
e 1 3
e 1 4
e 1 5
e 1 6
e 1 7
e 1 8
e 1 9
e 1 10
e 1 11
e 1 12
e 1 13
e 2 3
e 2 4
e 2 14
e 2 15
e 2 16
e 2 17
e 2 18
e 2 19
e 2 20
e 2 21
e 2 22
e 3 13
e 3 22
e 3 28
e 3 29
e 3 31
e 3 34
e 3 35
e 3 38
e 3 39
e 3 40
e 4 12
e 4 21
e 4 27
e 4 30
e 4 32
e 4 33
e 4 36
e 4 37
e 4 39
e 4 40
e 5 6
e 5 7
e 5 14
e 5 18
e 5 20
e 5 23
e 5 25
e 5 29
e 5 30
e 5 39
e 5 40
e 6 7
e 6 19
e 6 21
e 6 22
e 6 24
e 6 26
e 6 27
e 6 28
e 6 36
e 6 38
e 7 15
e 7 16
e 7 17
e 7 31
e 7 32
e 7 33
e 7 34
e 7 35
e 7 37
e 8 9
e 8 11
e 8 14
e 8 19
e 8 21
e 8 23
e 8 27
e 8 30
e 8 31
e 8 34
e 8 35
e 9 10
e 9 14
e 9 18
e 9 22
e 9 24
e 9 28
e 9 29
e 9 32
e 9 33
e 9 37
e 10 12
e 10 15
e 10 16
e 10 17
e 10 23
e 10 26
e 10 28
e 10 30
e 10 38
e 10 40
e 11 13
e 11 15
e 11 16
e 11 17
e 11 24
e 11 25
e 11 27
e 11 29
e 11 36
e 11 39
e 12 18
e 12 20
e 12 24
e 12 25
e 12 26
e 12 31
e 12 34
e 12 35
e 12 36
e 13 19
e 13 20
e 13 23
e 13 25
e 13 26
e 13 32
e 13 33
e 13 37
e 13 38
e 14 16
e 14 20
e 14 26
e 14 33
e 14 35
e 14 36
e 14 38
e 14 39
e 15 20
e 15 22
e 15 26
e 15 27
e 15 29
e 15 30
e 15 35
e 15 37
e 16 21
e 16 24
e 16 25
e 16 32
e 16 34
e 16 38
e 16 40
e 17 18
e 17 19
e 17 23
e 17 28
e 17 31
e 17 33
e 17 36
e 17 39
e 18 19
e 18 25
e 18 27
e 18 29
e 18 34
e 18 37
e 18 38
e 19 24
e 19 26
e 19 30
e 19 32
e 19 35
e 19 40
e 20 23
e 20 24
e 20 27
e 20 28
e 20 31
e 20 32
e 21 23
e 21 25
e 21 26
e 21 28
e 21 29
e 21 31
e 21 37
e 22 23
e 22 24
e 22 25
e 22 30
e 22 33
e 22 34
e 22 36
e 23 34
e 23 36
e 23 37
e 23 40
e 24 31
e 24 37
e 24 39
e 24 40
e 25 28
e 25 30
e 25 33
e 25 35
e 26 29
e 26 33
e 26 34
e 26 39
e 27 28
e 27 33
e 27 34
e 27 38
e 27 40
e 28 32
e 28 35
e 28 39
e 29 31
e 29 32
e 29 36
e 29 40
e 30 31
e 30 32
e 30 38
e 30 39
e 31 33
e 31 38
e 32 34
e 32 36
e 33 40
e 34 39
e 35 36
e 35 37
e 35 40
e 36 38
e 37 38
e 37 39
